5 5
4 4 3 10 2 20 5 17 4 3 2 2 19 4 20 4 1 9 4 17 3 19 5 15 1 4 17
6 2 2 10 3 6 3 3 2 2 17 1 5 5 3 20 5 17 1 18 4 9 2 2 3 1 16 2 17 4 11 5 2 13 4 2 5 11 3 10 1 7 3 4 19 2 19 5 20
6 2 3 20 1 19 5 1 15 5 15 2 12 3 2 4 9 5 4 18 1 11 3 4 5 8 2 10 5 1 20 4 7 5 11 3 9 2 3 1 2 7 1 2 15
8 2 2 12 4 4 4 3 3 5 18 2 7 1 14 4 5 4 4 6 1 13 2 11 5 5 15 3 18 4 7 2 13 1 20 2 3 19 2 4 1 4 2 1 3 10 5 4 16 1 3 3 9 5 9 2 9
4 5 2 9 3 18 1 16 5 8 4 6 2 5 4 2 12 4 2 7 4 14 5 18 3 10 1 5 18